(assert (forall ((pkt_0_4_6_0  Int  )(state_group_0_state_0_5_7_0  Int  )(state_group_0_state_1_6_8_0  Int  )) (let ((_n0 state_group_0_state_1_6_8_0 ))
(let ((_n1 state_group_0_state_0_5_7_0 ))
(let ((_n2 true ))
(let ((_n3 (+   _n1   (ite  _n2  1 0) ) ))
(let ((_n4 (ite (=  _n0  0)  _n3   _n1  ) ))
(let ((_n5 false ))
(let ((_n6 (<   (ite  _n5  1 0)   _n0 ) ))
(let ((_n7 (not  _n6 ) ))
(let ((_n8 999 ))
(let ((_n9 pkt_0_4_6_0 ))
(let ((_n10 (ite  _n6   (ite  _n5  1 0)   _n9  ) ))
(let ((_n11 (ite  _n6   (ite  _n5  1 0)   _n1  ) ))
(let ((_n12 (+   _n11   _n10 ) ))
(let ((_n13 (=   _n12   _n8 ) ))
(let ((_n14 (ite  _n6   _n5   _n13  ) ))
(let ((_n15 (or   _n14   _n6 ) ))
(let ((_n16 (not  _n15 ) ))
(let ((_n17 (+   _n1   (ite  _n16  1 0) ) ))
(let ((_n18 (not  _n14 ) ))
(let ((_n19 (or   _n18   _n6 ) ))
(let ((_n20 (not  _n19 ) ))
(let ((_n21 (ite  _n19   (ite  _n5  1 0)   _n9  ) ))
(let ((_n22 (+   _n21   (ite  _n20  1 0) ) ))
(let ((_n23 (ite  _n19   (ite  _n5  1 0)   _n22  ) ))
(let ((_n24 (+   _n1   _n23 ) ))
(let ((_n25 (ite (=  (ite  _n14  1 0)  1)  _n24   _n17  ) ))
(let ((_n26 (ite (=  (ite  _n7  1 0)  1)  _n25   _n1  ) ))
(let ((_n27 (ite  _n6   _n1   (ite  _n5  1 0)  ) ))
(let ((_n28 (=   _n27   _n8 ) ))
(let ((_n29 (not  _n28 ) ))
(let ((_n30 (and   _n6   _n29 ) ))
(let ((_n31 (or   _n30   _n7 ) ))
(let ((_n32 (ite  _n31   (ite  _n5  1 0)   _n9  ) ))
(let ((_n33 (+   _n32   _n32 ) ))
(let ((_n34 (ite  _n31   (ite  _n5  1 0)   _n33  ) ))
(let ((_n35 (+   _n1   _n34 ) ))
(let ((_n36 (ite (=  (ite  _n30  1 0)  1)  _n1   _n35  ) ))
(let ((_n37 (ite (=  (ite  _n6  1 0)  1)  _n36   _n26  ) ))
(let ((_n38 (=   _n37   _n4 ) ))
(let ((_n40 (ite (=  _n1  999)  (ite  _n2  1 0)   _n0  ) ))
(let ((_n41 (ite (=  _n0  0)  _n40   _n0  ) ))
(let ((_n42 (+   _n0   (ite  _n20  1 0) ) ))
(let ((_n43 (ite (=  (ite  _n14  1 0)  1)  _n42   _n0  ) ))
(let ((_n44 (ite (=  (ite  _n7  1 0)  1)  _n43   _n0  ) ))
(let ((_n45 (not  _n31 ) ))
(let ((_n46 (+   (ite  _n45  1 0)   _n32 ) ))
(let ((_n47 (ite  _n31   (ite  _n5  1 0)   _n46  ) ))
(let ((_n48 (+   _n0   _n47 ) ))
(let ((_n49 (ite (=  (ite  _n30  1 0)  1)  _n0   _n48  ) ))
(let ((_n50 (ite (=  (ite  _n6  1 0)  1)  _n49   _n44  ) ))
(let ((_n51 (=   _n50   _n41 ) ))
(implies  (and (and (>= state_group_0_state_1_6_8_0 0) (< state_group_0_state_1_6_8_0 1024 ))  (and (and (>= state_group_0_state_0_5_7_0 0) (< state_group_0_state_0_5_7_0 1024 ))  (and (>= pkt_0_4_6_0 0) (< pkt_0_4_6_0 1024 )) ) )   (and  _n38  _n51 )  ))))))))))))))))))))))))))))))))))))))))))))))))))))))
(check-sat)
(get-model)
(exit)